103
38
39
84
129
289
301
392
422
424
431
437
439
443
450
490
598
616
733
746
747
991
1013
1041
1140
1197
1199
1265
1267
1275
1281
1287
1310
1361
1418
1471
1481
1555
1558
1602
1644
1645
1737
1738
1739
1823
1870
1874
1886
1998
2013
2032
2034
2050
2055
2057
2248
2315
2316
2433
2436
2437
2545
2604
2697
2754
2871
2873
2881
2886
2945
2963
3032
3040
3316
3434
3437
3551
3567
3590
3591
3592
3625
3626
3665
3680
3747
3762
3775
3776
3788
3789
3791
3810
3811
3878
3989
3995
4181
4182
4184
4345
4351
4355